Instance name:    bar-n100-1
Authors:          PDPTW Solver
Date:             2025-11-20
Reference:        LNS with SA/RTR
Solution
Route 1 : 15 26 76 30 80 7 57 24 74 65 43 18 68 93 37 87 3 53
Route 2 : 40 17 67 2 52 8 20 70 58 45 4 54 90 95 1 51
Route 3 : 29 21 71 47 79 11 22 97 72 61 25 6 56 48 98 75 23 73
Route 4 : 33 13 63 35 10 60 38 83 28 78 88 85 46 16 36 66 50 96 100 86
Route 5 : 39 42 92 44 89 5 55 32 82 19 94 69
Route 6 : 31 14 64 49 12 81 62 41 9 59 34 84 91 99 27 77
